N = 9;
H = 5;
T = 2;

avail = array3d(1..N, 1..H, 1..T, [4, 5, 10, 10, 8, 9, 2, 10, 7, 2, 0, 7, 10, 10, 0, 5, 5, 2, 3, 10, 3, 10, 4, 0, 5, 9, 4, 1, 6, 5, 7, 6, 8, 7, 9, 5, 9, 7, 0, 10, 7, 5, 6, 0, 2, 1, 1, 5, 10, 6, 4, 0, 6, 6, 4, 6, 9, 0, 2, 5, 6, 5, 5, 6, 2, 7, 1, 1, 0, 3, 4, 2, 8, 4, 0, 2, 1, 2, 7, 8, 0, 8, 10, 0, 6, 7, 5, 0, 8, 8]);

r = array2d(1..H, 1..T, [2, 2, 0, 2, 2, 5, 0, 2, 3, 1]);
